nMeses = 6;
nAceiteVegetal = 2;
nAceiteNoVegetal = 3;
MesesPerdida=3;
VALOR = 200;
dureza = [9.0, 7.0, 3.0, 5.0, 6.0];
precios = [| 120, 130, 140, 120, 125
           | 140, 140, 120, 100, 125
           | 120, 150, 140, 110, 105
           | 130, 120, 130, 130, 135
           | 110, 130, 160, 120, 115
           | 100, 110, 150, 90, 145 |];
MAXV = 300;
MAXN = 350;
MCAP = 1500;
CA = 7;
MinD = 4.0;
MaxD = 7.0; 
MinB = 150000;
inicial = [700, 700, 700, 700, 700];
PV = 15;
